Maximize
  - 5.2343570870404 edge_0_1_0_0 - 4.150765542649 edge_0_2_0_0
   - 1.0555565823407 edge_0_3_0_0 - 2.603998542402 edge_0_4_0_0
   - 4.0507307940204 edge_0_5_0_0 - 3.3937427473208 edge_0_9_0_0
   - 2.5155778036569 edge_0_10_0_0 - 2.1836861963064 edge_0_11_0_0
   - 3.9343686701632 edge_0_13_0_0 - 3.361097210287 edge_0_14_0_0
   - 0.7709443430561711 edge_1_2_0_0 - 0.2712970049901323 edge_1_3_0_0
   - 0.0320759292221998 edge_1_4_0_0 - 1.198543266387124 edge_1_11_0_0
   - 2.255392356684563 edge_1_14_0_0 - 0.6653766562285411 edge_1_15_0_0
   - 0.1264133276172491 edge_2_1_0_0 + 0.61818091090324 edge_2_3_0_0
   + 0.1301683717462633 edge_2_4_0_0 - 0.1299639176930109 edge_2_5_0_0
   - 1.086426645422271 edge_2_9_0_0 + 0.1397248479664158 edge_2_10_0_0
   - 0.6599407473254083 edge_2_11_0_0 - 1.434801527957261 edge_2_12_0_0
   - 1.62510061494504 edge_2_13_0_0 - 0.3062821528621621 edge_2_14_0_0
   + 0.091246028767072 edge_2_15_0_0 + 0.6418666730946635 edge_3_1_0_0
   + 3.3225795086876 edge_3_2_0_0 + 2.5099832645461 edge_3_4_0_0
   + 0.8813461344187199 edge_3_5_0_0 - 0.3270771633895588 edge_3_9_0_0
   + 2.0054040570746 edge_3_10_0_0 - 0.1049740895919672 edge_3_11_0_0
   - 1.504397524287838 edge_3_12_0_0 - 2.02098677518991 edge_3_13_0_0
   + 1.3228489020345 edge_3_14_0_0 + 2.05743 edge_3_15_0_0
   - 0.64613508409763 edge_4_1_0_0 - 0.4676346016296307 edge_4_2_0_0
   - 0.17953267847507 edge_4_3_0_0 + 0.4546041039275192 edge_4_5_0_0
   + 0.2754467553581466 edge_4_10_0_0 - 0.37991884667836 edge_4_11_0_0
   - 0.8258152894426999 edge_4_14_0_0 - 0.13090739015214 edge_4_15_0_0
   - 0.8919761668401397 edge_5_1_0_0 - 0.6427866939082409 edge_5_2_0_0
   - 0.5809807801729938 edge_5_3_0_0 - 0.0498961403202996 edge_5_4_0_0
   - 0.190284424577407 edge_5_9_0_0 + 1.127950853540415 edge_5_10_0_0
   + 0.257740956418917 edge_5_11_0_0 - 0.0812917227484286 edge_5_12_0_0
   + 0.6515495741004741 edge_5_13_0_0 + 0.7807802077483297 edge_5_14_0_0
   + 1.069086377292 edge_5_15_0_0 + 0.0587063323962463 edge_9_2_0_0
   - 0.1025114286138078 edge_9_3_0_0 + 0.6394299771062952 edge_9_4_0_0
   + 0.2458743600047227 edge_9_5_0_0 + 1.0050510344294 edge_9_10_0_0
   + 0.2753897644943457 edge_9_12_0_0 + 0.3211630048928361 edge_9_13_0_0
   + 0.4885305200517805 edge_9_14_0_0 + 0.6623261103161772 edge_9_15_0_0
   + 1.070706631414845 edge_10_2_0_0 + 0.6999609539390943 edge_10_3_0_0
   + 1.127827171940527 edge_10_4_0_0 + 2.346819385984101 edge_10_5_0_0
   + 2.634349060729523 edge_10_9_0_0 + 0.1984695033265114 edge_10_12_0_0
   + 0.4200164562781342 edge_10_13_0_0 + 3.242682539611058 edge_10_14_0_0
   + 2.2577308854168 edge_10_15_0_0 - 0.9407519604720253 edge_11_1_0_0
   - 0.2927330278989715 edge_11_2_0_0 - 0.190606628821427 edge_11_3_0_0
   - 0.4479272665926314 edge_11_4_0_0 + 0.9244929338231822 edge_11_5_0_0
   + 0.8050945594503753 edge_11_10_0_0 - 0.163922601666261 edge_11_12_0_0
   - 0.0640963080979146 edge_11_13_0_0 + 0.9580398833796447 edge_11_14_0_0
   + 0.314561575565398 edge_11_15_0_0 - 1.427216377934188 edge_12_2_0_0
   - 1.551221426932569 edge_12_3_0_0 - 1.625699659911829 edge_12_4_0_0
   - 0.5856627989138944 edge_12_5_0_0 - 0.6752093845379369 edge_12_9_0_0
   - 1.130270738826934 edge_12_10_0_0 + 0.1615605046254554 edge_12_13_0_0
   + 0.2783611928058605 edge_12_14_0_0 + 0.5987117576877005 edge_12_15_0_0
   - 1.281643906248777 edge_13_2_0_0 - 1.4078401429172 edge_13_3_0_0
   - 0.3318648474635957 edge_13_4_0_0 - 0.1806881721819478 edge_13_5_0_0
   - 0.8613721695081802 edge_13_9_0_0 - 0.3737713543454487 edge_13_10_0_0
   - 0.1068199416913887 edge_13_12_0_0 + 0.4145471702441248 edge_13_14_0_0
   + 0.3407716319734893 edge_13_15_0_0 - 1.846877052610364 edge_14_1_0_0
   + 0.7806933218266051 edge_14_2_0_0 - 0.2840676904249101 edge_14_3_0_0
   + 0.63113160868997 edge_14_4_0_0 + 1.020613351722215 edge_14_5_0_0
   + 0.2104288948753392 edge_14_9_0_0 + 0.6498565742370758 edge_14_10_0_0
   + 0.05265887547832 edge_14_11_0_0 + 1.728939708439437 edge_14_12_0_0
   + 3.496728102455966 edge_14_13_0_0 + 1.536842761437347 edge_14_15_0_0
   - 0.3509510632658674 edge_15_12_0_0 - 0.5241755311219087 edge_15_14_0_0
Subject To
 one_parent_1: edge_0_1_0_0 + edge_2_1_0_0 + edge_3_1_0_0 + edge_4_1_0_0
   + edge_5_1_0_0 + edge_11_1_0_0 + edge_14_1_0_0 = 1
 consume_one_flow_unit_1: flow_0_1_0_0 - flow_1_2_0_0 - flow_1_3_0_0
   - flow_1_4_0_0 - flow_1_11_0_0 - flow_1_14_0_0 - flow_1_15_0_0
   + flow_2_1_0_0 + flow_3_1_0_0 + flow_4_1_0_0 + flow_5_1_0_0
   + flow_11_1_0_0 + flow_14_1_0_0 = 1
 one_parent_2: edge_0_2_0_0 + edge_1_2_0_0 + edge_3_2_0_0 + edge_4_2_0_0
   + edge_5_2_0_0 + edge_9_2_0_0 + edge_10_2_0_0 + edge_11_2_0_0
   + edge_12_2_0_0 + edge_13_2_0_0 + edge_14_2_0_0 = 1
 consume_one_flow_unit_2: flow_0_2_0_0 + flow_1_2_0_0 - flow_2_1_0_0
   - flow_2_3_0_0 - flow_2_4_0_0 - flow_2_5_0_0 - flow_2_9_0_0
   - flow_2_10_0_0 - flow_2_11_0_0 - flow_2_12_0_0 - flow_2_13_0_0
   - flow_2_14_0_0 - flow_2_15_0_0 + flow_3_2_0_0 + flow_4_2_0_0
   + flow_5_2_0_0 + flow_9_2_0_0 + flow_10_2_0_0 + flow_11_2_0_0
   + flow_12_2_0_0 + flow_13_2_0_0 + flow_14_2_0_0 = 1
 one_parent_3: edge_0_3_0_0 + edge_1_3_0_0 + edge_2_3_0_0 + edge_4_3_0_0
   + edge_5_3_0_0 + edge_9_3_0_0 + edge_10_3_0_0 + edge_11_3_0_0
   + edge_12_3_0_0 + edge_13_3_0_0 + edge_14_3_0_0 = 1
 consume_one_flow_unit_3: flow_0_3_0_0 + flow_1_3_0_0 + flow_2_3_0_0
   - flow_3_1_0_0 - flow_3_2_0_0 - flow_3_4_0_0 - flow_3_5_0_0
   - flow_3_9_0_0 - flow_3_10_0_0 - flow_3_11_0_0 - flow_3_12_0_0
   - flow_3_13_0_0 - flow_3_14_0_0 - flow_3_15_0_0 + flow_4_3_0_0
   + flow_5_3_0_0 + flow_9_3_0_0 + flow_10_3_0_0 + flow_11_3_0_0
   + flow_12_3_0_0 + flow_13_3_0_0 + flow_14_3_0_0 = 1
 one_parent_4: edge_0_4_0_0 + edge_1_4_0_0 + edge_2_4_0_0 + edge_3_4_0_0
   + edge_5_4_0_0 + edge_9_4_0_0 + edge_10_4_0_0 + edge_11_4_0_0
   + edge_12_4_0_0 + edge_13_4_0_0 + edge_14_4_0_0 = 1
 consume_one_flow_unit_4: flow_0_4_0_0 + flow_1_4_0_0 + flow_2_4_0_0
   + flow_3_4_0_0 - flow_4_1_0_0 - flow_4_2_0_0 - flow_4_3_0_0
   - flow_4_5_0_0 - flow_4_10_0_0 - flow_4_11_0_0 - flow_4_14_0_0
   - flow_4_15_0_0 + flow_5_4_0_0 + flow_9_4_0_0 + flow_10_4_0_0
   + flow_11_4_0_0 + flow_12_4_0_0 + flow_13_4_0_0 + flow_14_4_0_0 = 1
 one_parent_5: edge_0_5_0_0 + edge_2_5_0_0 + edge_3_5_0_0 + edge_4_5_0_0
   + edge_9_5_0_0 + edge_10_5_0_0 + edge_11_5_0_0 + edge_12_5_0_0
   + edge_13_5_0_0 + edge_14_5_0_0 = 1
 consume_one_flow_unit_5: flow_0_5_0_0 + flow_2_5_0_0 + flow_3_5_0_0
   + flow_4_5_0_0 - flow_5_1_0_0 - flow_5_2_0_0 - flow_5_3_0_0
   - flow_5_4_0_0 - flow_5_9_0_0 - flow_5_10_0_0 - flow_5_11_0_0
   - flow_5_12_0_0 - flow_5_13_0_0 - flow_5_14_0_0 - flow_5_15_0_0
   + flow_9_5_0_0 + flow_10_5_0_0 + flow_11_5_0_0 + flow_12_5_0_0
   + flow_13_5_0_0 + flow_14_5_0_0 = 1
 one_parent_6: = 1
 consume_one_flow_unit_6: = 1
 one_parent_7: = 1
 consume_one_flow_unit_7: = 1
 one_parent_8: = 1
 consume_one_flow_unit_8: = 1
 one_parent_9: edge_0_9_0_0 + edge_2_9_0_0 + edge_3_9_0_0 + edge_5_9_0_0
   + edge_10_9_0_0 + edge_12_9_0_0 + edge_13_9_0_0 + edge_14_9_0_0 = 1
 consume_one_flow_unit_9: flow_0_9_0_0 + flow_2_9_0_0 + flow_3_9_0_0
   + flow_5_9_0_0 - flow_9_2_0_0 - flow_9_3_0_0 - flow_9_4_0_0
   - flow_9_5_0_0 - flow_9_10_0_0 - flow_9_12_0_0 - flow_9_13_0_0
   - flow_9_14_0_0 - flow_9_15_0_0 + flow_10_9_0_0 + flow_12_9_0_0
   + flow_13_9_0_0 + flow_14_9_0_0 = 1
 one_parent_10: edge_0_10_0_0 + edge_2_10_0_0 + edge_3_10_0_0
   + edge_4_10_0_0 + edge_5_10_0_0 + edge_9_10_0_0 + edge_11_10_0_0
   + edge_12_10_0_0 + edge_13_10_0_0 + edge_14_10_0_0 = 1
 consume_one_flow_unit_10: flow_0_10_0_0 + flow_2_10_0_0 + flow_3_10_0_0
   + flow_4_10_0_0 + flow_5_10_0_0 + flow_9_10_0_0 - flow_10_2_0_0
   - flow_10_3_0_0 - flow_10_4_0_0 - flow_10_5_0_0 - flow_10_9_0_0
   - flow_10_12_0_0 - flow_10_13_0_0 - flow_10_14_0_0 - flow_10_15_0_0
   + flow_11_10_0_0 + flow_12_10_0_0 + flow_13_10_0_0 + flow_14_10_0_0 = 1
 one_parent_11: edge_0_11_0_0 + edge_1_11_0_0 + edge_2_11_0_0
   + edge_3_11_0_0 + edge_4_11_0_0 + edge_5_11_0_0 + edge_14_11_0_0 = 1
 consume_one_flow_unit_11: flow_0_11_0_0 + flow_1_11_0_0 + flow_2_11_0_0
   + flow_3_11_0_0 + flow_4_11_0_0 + flow_5_11_0_0 - flow_11_1_0_0
   - flow_11_2_0_0 - flow_11_3_0_0 - flow_11_4_0_0 - flow_11_5_0_0
   - flow_11_10_0_0 - flow_11_12_0_0 - flow_11_13_0_0 - flow_11_14_0_0
   - flow_11_15_0_0 + flow_14_11_0_0 = 1
 one_parent_12: edge_2_12_0_0 + edge_3_12_0_0 + edge_5_12_0_0
   + edge_9_12_0_0 + edge_10_12_0_0 + edge_11_12_0_0 + edge_13_12_0_0
   + edge_14_12_0_0 + edge_15_12_0_0 = 1
 consume_one_flow_unit_12: flow_2_12_0_0 + flow_3_12_0_0 + flow_5_12_0_0
   + flow_9_12_0_0 + flow_10_12_0_0 + flow_11_12_0_0 - flow_12_2_0_0
   - flow_12_3_0_0 - flow_12_4_0_0 - flow_12_5_0_0 - flow_12_9_0_0
   - flow_12_10_0_0 - flow_12_13_0_0 - flow_12_14_0_0 - flow_12_15_0_0
   + flow_13_12_0_0 + flow_14_12_0_0 + flow_15_12_0_0 = 1
 one_parent_13: edge_0_13_0_0 + edge_2_13_0_0 + edge_3_13_0_0
   + edge_5_13_0_0 + edge_9_13_0_0 + edge_10_13_0_0 + edge_11_13_0_0
   + edge_12_13_0_0 + edge_14_13_0_0 = 1
 consume_one_flow_unit_13: flow_0_13_0_0 + flow_2_13_0_0 + flow_3_13_0_0
   + flow_5_13_0_0 + flow_9_13_0_0 + flow_10_13_0_0 + flow_11_13_0_0
   + flow_12_13_0_0 - flow_13_2_0_0 - flow_13_3_0_0 - flow_13_4_0_0
   - flow_13_5_0_0 - flow_13_9_0_0 - flow_13_10_0_0 - flow_13_12_0_0
   - flow_13_14_0_0 - flow_13_15_0_0 + flow_14_13_0_0 = 1
 one_parent_14: edge_0_14_0_0 + edge_1_14_0_0 + edge_2_14_0_0
   + edge_3_14_0_0 + edge_4_14_0_0 + edge_5_14_0_0 + edge_9_14_0_0
   + edge_10_14_0_0 + edge_11_14_0_0 + edge_12_14_0_0 + edge_13_14_0_0
   + edge_15_14_0_0 = 1
 consume_one_flow_unit_14: flow_0_14_0_0 + flow_1_14_0_0 + flow_2_14_0_0
   + flow_3_14_0_0 + flow_4_14_0_0 + flow_5_14_0_0 + flow_9_14_0_0
   + flow_10_14_0_0 + flow_11_14_0_0 + flow_12_14_0_0 + flow_13_14_0_0
   - flow_14_1_0_0 - flow_14_2_0_0 - flow_14_3_0_0 - flow_14_4_0_0
   - flow_14_5_0_0 - flow_14_9_0_0 - flow_14_10_0_0 - flow_14_11_0_0
   - flow_14_12_0_0 - flow_14_13_0_0 - flow_14_15_0_0 + flow_15_14_0_0 = 1
 one_parent_15: edge_1_15_0_0 + edge_2_15_0_0 + edge_3_15_0_0
   + edge_4_15_0_0 + edge_5_15_0_0 + edge_9_15_0_0 + edge_10_15_0_0
   + edge_11_15_0_0 + edge_12_15_0_0 + edge_13_15_0_0 + edge_14_15_0_0 = 1
 consume_one_flow_unit_15: flow_1_15_0_0 + flow_2_15_0_0 + flow_3_15_0_0
   + flow_4_15_0_0 + flow_5_15_0_0 + flow_9_15_0_0 + flow_10_15_0_0
   + flow_11_15_0_0 + flow_12_15_0_0 + flow_13_15_0_0 + flow_14_15_0_0
   - flow_15_12_0_0 - flow_15_14_0_0 = 1
 root_flow: flow_0_1_0_0 + flow_0_2_0_0 + flow_0_3_0_0 + flow_0_4_0_0
   + flow_0_5_0_0 + flow_0_9_0_0 + flow_0_10_0_0 + flow_0_11_0_0
   + flow_0_13_0_0 + flow_0_14_0_0 = 15
 inactive_no_flow_0_1_0_0: flow_0_1_0_0 - 1000 edge_0_1_0_0 <= 0
 inactive_no_flow_0_2_0_0: flow_0_2_0_0 - 1000 edge_0_2_0_0 <= 0
 inactive_no_flow_0_3_0_0: flow_0_3_0_0 - 1000 edge_0_3_0_0 <= 0
 inactive_no_flow_0_4_0_0: flow_0_4_0_0 - 1000 edge_0_4_0_0 <= 0
 inactive_no_flow_0_5_0_0: flow_0_5_0_0 - 1000 edge_0_5_0_0 <= 0
 inactive_no_flow_0_9_0_0: flow_0_9_0_0 - 1000 edge_0_9_0_0 <= 0
 inactive_no_flow_0_10_0_0: flow_0_10_0_0 - 1000 edge_0_10_0_0 <= 0
 inactive_no_flow_0_11_0_0: flow_0_11_0_0 - 1000 edge_0_11_0_0 <= 0
 inactive_no_flow_0_13_0_0: flow_0_13_0_0 - 1000 edge_0_13_0_0 <= 0
 inactive_no_flow_0_14_0_0: flow_0_14_0_0 - 1000 edge_0_14_0_0 <= 0
 inactive_no_flow_1_2_0_0: flow_1_2_0_0 - 1000 edge_1_2_0_0 <= 0
 inactive_no_flow_1_3_0_0: flow_1_3_0_0 - 1000 edge_1_3_0_0 <= 0
 inactive_no_flow_1_4_0_0: flow_1_4_0_0 - 1000 edge_1_4_0_0 <= 0
 inactive_no_flow_1_11_0_0: flow_1_11_0_0 - 1000 edge_1_11_0_0 <= 0
 inactive_no_flow_1_14_0_0: flow_1_14_0_0 - 1000 edge_1_14_0_0 <= 0
 inactive_no_flow_1_15_0_0: flow_1_15_0_0 - 1000 edge_1_15_0_0 <= 0
 inactive_no_flow_2_1_0_0: flow_2_1_0_0 - 1000 edge_2_1_0_0 <= 0
 inactive_no_flow_2_3_0_0: flow_2_3_0_0 - 1000 edge_2_3_0_0 <= 0
 inactive_no_flow_2_4_0_0: flow_2_4_0_0 - 1000 edge_2_4_0_0 <= 0
 inactive_no_flow_2_5_0_0: flow_2_5_0_0 - 1000 edge_2_5_0_0 <= 0
 inactive_no_flow_2_9_0_0: flow_2_9_0_0 - 1000 edge_2_9_0_0 <= 0
 inactive_no_flow_2_10_0_0: flow_2_10_0_0 - 1000 edge_2_10_0_0 <= 0
 inactive_no_flow_2_11_0_0: flow_2_11_0_0 - 1000 edge_2_11_0_0 <= 0
 inactive_no_flow_2_12_0_0: flow_2_12_0_0 - 1000 edge_2_12_0_0 <= 0
 inactive_no_flow_2_13_0_0: flow_2_13_0_0 - 1000 edge_2_13_0_0 <= 0
 inactive_no_flow_2_14_0_0: flow_2_14_0_0 - 1000 edge_2_14_0_0 <= 0
 inactive_no_flow_2_15_0_0: flow_2_15_0_0 - 1000 edge_2_15_0_0 <= 0
 inactive_no_flow_3_1_0_0: flow_3_1_0_0 - 1000 edge_3_1_0_0 <= 0
 inactive_no_flow_3_2_0_0: flow_3_2_0_0 - 1000 edge_3_2_0_0 <= 0
 inactive_no_flow_3_4_0_0: flow_3_4_0_0 - 1000 edge_3_4_0_0 <= 0
 inactive_no_flow_3_5_0_0: flow_3_5_0_0 - 1000 edge_3_5_0_0 <= 0
 inactive_no_flow_3_9_0_0: flow_3_9_0_0 - 1000 edge_3_9_0_0 <= 0
 inactive_no_flow_3_10_0_0: flow_3_10_0_0 - 1000 edge_3_10_0_0 <= 0
 inactive_no_flow_3_11_0_0: flow_3_11_0_0 - 1000 edge_3_11_0_0 <= 0
 inactive_no_flow_3_12_0_0: flow_3_12_0_0 - 1000 edge_3_12_0_0 <= 0
 inactive_no_flow_3_13_0_0: flow_3_13_0_0 - 1000 edge_3_13_0_0 <= 0
 inactive_no_flow_3_14_0_0: flow_3_14_0_0 - 1000 edge_3_14_0_0 <= 0
 inactive_no_flow_3_15_0_0: flow_3_15_0_0 - 1000 edge_3_15_0_0 <= 0
 inactive_no_flow_4_1_0_0: flow_4_1_0_0 - 1000 edge_4_1_0_0 <= 0
 inactive_no_flow_4_2_0_0: flow_4_2_0_0 - 1000 edge_4_2_0_0 <= 0
 inactive_no_flow_4_3_0_0: flow_4_3_0_0 - 1000 edge_4_3_0_0 <= 0
 inactive_no_flow_4_5_0_0: flow_4_5_0_0 - 1000 edge_4_5_0_0 <= 0
 inactive_no_flow_4_10_0_0: flow_4_10_0_0 - 1000 edge_4_10_0_0 <= 0
 inactive_no_flow_4_11_0_0: flow_4_11_0_0 - 1000 edge_4_11_0_0 <= 0
 inactive_no_flow_4_14_0_0: flow_4_14_0_0 - 1000 edge_4_14_0_0 <= 0
 inactive_no_flow_4_15_0_0: flow_4_15_0_0 - 1000 edge_4_15_0_0 <= 0
 inactive_no_flow_5_1_0_0: flow_5_1_0_0 - 1000 edge_5_1_0_0 <= 0
 inactive_no_flow_5_2_0_0: flow_5_2_0_0 - 1000 edge_5_2_0_0 <= 0
 inactive_no_flow_5_3_0_0: flow_5_3_0_0 - 1000 edge_5_3_0_0 <= 0
 inactive_no_flow_5_4_0_0: flow_5_4_0_0 - 1000 edge_5_4_0_0 <= 0
 inactive_no_flow_5_9_0_0: flow_5_9_0_0 - 1000 edge_5_9_0_0 <= 0
 inactive_no_flow_5_10_0_0: flow_5_10_0_0 - 1000 edge_5_10_0_0 <= 0
 inactive_no_flow_5_11_0_0: flow_5_11_0_0 - 1000 edge_5_11_0_0 <= 0
 inactive_no_flow_5_12_0_0: flow_5_12_0_0 - 1000 edge_5_12_0_0 <= 0
 inactive_no_flow_5_13_0_0: flow_5_13_0_0 - 1000 edge_5_13_0_0 <= 0
 inactive_no_flow_5_14_0_0: flow_5_14_0_0 - 1000 edge_5_14_0_0 <= 0
 inactive_no_flow_5_15_0_0: flow_5_15_0_0 - 1000 edge_5_15_0_0 <= 0
 inactive_no_flow_9_2_0_0: flow_9_2_0_0 - 1000 edge_9_2_0_0 <= 0
 inactive_no_flow_9_3_0_0: flow_9_3_0_0 - 1000 edge_9_3_0_0 <= 0
 inactive_no_flow_9_4_0_0: flow_9_4_0_0 - 1000 edge_9_4_0_0 <= 0
 inactive_no_flow_9_5_0_0: flow_9_5_0_0 - 1000 edge_9_5_0_0 <= 0
 inactive_no_flow_9_10_0_0: flow_9_10_0_0 - 1000 edge_9_10_0_0 <= 0
 inactive_no_flow_9_12_0_0: flow_9_12_0_0 - 1000 edge_9_12_0_0 <= 0
 inactive_no_flow_9_13_0_0: flow_9_13_0_0 - 1000 edge_9_13_0_0 <= 0
 inactive_no_flow_9_14_0_0: flow_9_14_0_0 - 1000 edge_9_14_0_0 <= 0
 inactive_no_flow_9_15_0_0: flow_9_15_0_0 - 1000 edge_9_15_0_0 <= 0
 inactive_no_flow_10_2_0_0: flow_10_2_0_0 - 1000 edge_10_2_0_0 <= 0
 inactive_no_flow_10_3_0_0: flow_10_3_0_0 - 1000 edge_10_3_0_0 <= 0
 inactive_no_flow_10_4_0_0: flow_10_4_0_0 - 1000 edge_10_4_0_0 <= 0
 inactive_no_flow_10_5_0_0: flow_10_5_0_0 - 1000 edge_10_5_0_0 <= 0
 inactive_no_flow_10_9_0_0: flow_10_9_0_0 - 1000 edge_10_9_0_0 <= 0
 inactive_no_flow_10_12_0_0: flow_10_12_0_0 - 1000 edge_10_12_0_0 <= 0
 inactive_no_flow_10_13_0_0: flow_10_13_0_0 - 1000 edge_10_13_0_0 <= 0
 inactive_no_flow_10_14_0_0: flow_10_14_0_0 - 1000 edge_10_14_0_0 <= 0
 inactive_no_flow_10_15_0_0: flow_10_15_0_0 - 1000 edge_10_15_0_0 <= 0
 inactive_no_flow_11_1_0_0: flow_11_1_0_0 - 1000 edge_11_1_0_0 <= 0
 inactive_no_flow_11_2_0_0: flow_11_2_0_0 - 1000 edge_11_2_0_0 <= 0
 inactive_no_flow_11_3_0_0: flow_11_3_0_0 - 1000 edge_11_3_0_0 <= 0
 inactive_no_flow_11_4_0_0: flow_11_4_0_0 - 1000 edge_11_4_0_0 <= 0
 inactive_no_flow_11_5_0_0: flow_11_5_0_0 - 1000 edge_11_5_0_0 <= 0
 inactive_no_flow_11_10_0_0: flow_11_10_0_0 - 1000 edge_11_10_0_0 <= 0
 inactive_no_flow_11_12_0_0: flow_11_12_0_0 - 1000 edge_11_12_0_0 <= 0
 inactive_no_flow_11_13_0_0: flow_11_13_0_0 - 1000 edge_11_13_0_0 <= 0
 inactive_no_flow_11_14_0_0: flow_11_14_0_0 - 1000 edge_11_14_0_0 <= 0
 inactive_no_flow_11_15_0_0: flow_11_15_0_0 - 1000 edge_11_15_0_0 <= 0
 inactive_no_flow_12_2_0_0: flow_12_2_0_0 - 1000 edge_12_2_0_0 <= 0
 inactive_no_flow_12_3_0_0: flow_12_3_0_0 - 1000 edge_12_3_0_0 <= 0
 inactive_no_flow_12_4_0_0: flow_12_4_0_0 - 1000 edge_12_4_0_0 <= 0
 inactive_no_flow_12_5_0_0: flow_12_5_0_0 - 1000 edge_12_5_0_0 <= 0
 inactive_no_flow_12_9_0_0: flow_12_9_0_0 - 1000 edge_12_9_0_0 <= 0
 inactive_no_flow_12_10_0_0: flow_12_10_0_0 - 1000 edge_12_10_0_0 <= 0
 inactive_no_flow_12_13_0_0: flow_12_13_0_0 - 1000 edge_12_13_0_0 <= 0
 inactive_no_flow_12_14_0_0: flow_12_14_0_0 - 1000 edge_12_14_0_0 <= 0
 inactive_no_flow_12_15_0_0: flow_12_15_0_0 - 1000 edge_12_15_0_0 <= 0
 inactive_no_flow_13_2_0_0: flow_13_2_0_0 - 1000 edge_13_2_0_0 <= 0
 inactive_no_flow_13_3_0_0: flow_13_3_0_0 - 1000 edge_13_3_0_0 <= 0
 inactive_no_flow_13_4_0_0: flow_13_4_0_0 - 1000 edge_13_4_0_0 <= 0
 inactive_no_flow_13_5_0_0: flow_13_5_0_0 - 1000 edge_13_5_0_0 <= 0
 inactive_no_flow_13_9_0_0: flow_13_9_0_0 - 1000 edge_13_9_0_0 <= 0
 inactive_no_flow_13_10_0_0: flow_13_10_0_0 - 1000 edge_13_10_0_0 <= 0
 inactive_no_flow_13_12_0_0: flow_13_12_0_0 - 1000 edge_13_12_0_0 <= 0
 inactive_no_flow_13_14_0_0: flow_13_14_0_0 - 1000 edge_13_14_0_0 <= 0
 inactive_no_flow_13_15_0_0: flow_13_15_0_0 - 1000 edge_13_15_0_0 <= 0
 inactive_no_flow_14_1_0_0: flow_14_1_0_0 - 1000 edge_14_1_0_0 <= 0
 inactive_no_flow_14_2_0_0: flow_14_2_0_0 - 1000 edge_14_2_0_0 <= 0
 inactive_no_flow_14_3_0_0: flow_14_3_0_0 - 1000 edge_14_3_0_0 <= 0
 inactive_no_flow_14_4_0_0: flow_14_4_0_0 - 1000 edge_14_4_0_0 <= 0
 inactive_no_flow_14_5_0_0: flow_14_5_0_0 - 1000 edge_14_5_0_0 <= 0
 inactive_no_flow_14_9_0_0: flow_14_9_0_0 - 1000 edge_14_9_0_0 <= 0
 inactive_no_flow_14_10_0_0: flow_14_10_0_0 - 1000 edge_14_10_0_0 <= 0
 inactive_no_flow_14_11_0_0: flow_14_11_0_0 - 1000 edge_14_11_0_0 <= 0
 inactive_no_flow_14_12_0_0: flow_14_12_0_0 - 1000 edge_14_12_0_0 <= 0
 inactive_no_flow_14_13_0_0: flow_14_13_0_0 - 1000 edge_14_13_0_0 <= 0
 inactive_no_flow_14_15_0_0: flow_14_15_0_0 - 1000 edge_14_15_0_0 <= 0
 inactive_no_flow_15_12_0_0: flow_15_12_0_0 - 1000 edge_15_12_0_0 <= 0
 inactive_no_flow_15_14_0_0: flow_15_14_0_0 - 1000 edge_15_14_0_0 <= 0
Bounds
Binaries
 edge_0_1_0_0 edge_0_2_0_0 edge_0_3_0_0 edge_0_4_0_0 edge_0_5_0_0
 edge_0_9_0_0 edge_0_10_0_0 edge_0_11_0_0 edge_0_13_0_0 edge_0_14_0_0
 edge_1_2_0_0 edge_1_3_0_0 edge_1_4_0_0 edge_1_11_0_0 edge_1_14_0_0
 edge_1_15_0_0 edge_2_1_0_0 edge_2_3_0_0 edge_2_4_0_0 edge_2_5_0_0
 edge_2_9_0_0 edge_2_10_0_0 edge_2_11_0_0 edge_2_12_0_0 edge_2_13_0_0
 edge_2_14_0_0 edge_2_15_0_0 edge_3_1_0_0 edge_3_2_0_0 edge_3_4_0_0
 edge_3_5_0_0 edge_3_9_0_0 edge_3_10_0_0 edge_3_11_0_0 edge_3_12_0_0
 edge_3_13_0_0 edge_3_14_0_0 edge_3_15_0_0 edge_4_1_0_0 edge_4_2_0_0
 edge_4_3_0_0 edge_4_5_0_0 edge_4_10_0_0 edge_4_11_0_0 edge_4_14_0_0
 edge_4_15_0_0 edge_5_1_0_0 edge_5_2_0_0 edge_5_3_0_0 edge_5_4_0_0
 edge_5_9_0_0 edge_5_10_0_0 edge_5_11_0_0 edge_5_12_0_0 edge_5_13_0_0
 edge_5_14_0_0 edge_5_15_0_0 edge_9_2_0_0 edge_9_3_0_0 edge_9_4_0_0
 edge_9_5_0_0 edge_9_10_0_0 edge_9_12_0_0 edge_9_13_0_0 edge_9_14_0_0
 edge_9_15_0_0 edge_10_2_0_0 edge_10_3_0_0 edge_10_4_0_0 edge_10_5_0_0
 edge_10_9_0_0 edge_10_12_0_0 edge_10_13_0_0 edge_10_14_0_0 edge_10_15_0_0
 edge_11_1_0_0 edge_11_2_0_0 edge_11_3_0_0 edge_11_4_0_0 edge_11_5_0_0
 edge_11_10_0_0 edge_11_12_0_0 edge_11_13_0_0 edge_11_14_0_0 edge_11_15_0_0
 edge_12_2_0_0 edge_12_3_0_0 edge_12_4_0_0 edge_12_5_0_0 edge_12_9_0_0
 edge_12_10_0_0 edge_12_13_0_0 edge_12_14_0_0 edge_12_15_0_0 edge_13_2_0_0
 edge_13_3_0_0 edge_13_4_0_0 edge_13_5_0_0 edge_13_9_0_0 edge_13_10_0_0
 edge_13_12_0_0 edge_13_14_0_0 edge_13_15_0_0 edge_14_1_0_0 edge_14_2_0_0
 edge_14_3_0_0 edge_14_4_0_0 edge_14_5_0_0 edge_14_9_0_0 edge_14_10_0_0
 edge_14_11_0_0 edge_14_12_0_0 edge_14_13_0_0 edge_14_15_0_0 edge_15_12_0_0
 edge_15_14_0_0
End
